# Objective value = 99
WA1n 0
WA1p 0
WA2n 1
WA2p 0
WB1n 0
WB1p 0
WB2n 1
WB2p 0
WC1n 0
WC1p 0
WC2n 1
WC2p 0
WD1n 0
WD1p 0
WD2n 0
WD2p 1
WE1n 0
WE1p 2
WF1n 2
WF1p 0
WF2n 1
WF2p 0
WG1n 0
WG1p 4
WG2n 0
WG2p 1
WH1n 7
WH1p 0
WI1n 7
WI1p 0
WJ1n 7
WJ1p 0
WK1n 0
WK1p 7
WL1n 0
WL1p 7
WM1n 0
WM1p 7
WN1n 0
WN1p 7
WT1n 0
WT1p 28
WT2n 0
WT2p 1
5 7
a 0
b 0
c 0
d 0
e 0
f 0
g 0
h 1
i 1
j 0
k 0
l 1
m 1
n 0
o 0
p 0
q 1
r 1
s 1
t 1
u 1
v 1
